c A SAT instance generated from a 3-CNF formula that had 14 clauses and 7 variables
p cnf 7 14
-7 -5 -3 0
6 -5 -2 0
6 4 -7 0
2 -3 1 0
4 2 7 0
4 1 -5 0
-7 4 5 0
5 -7 3 0
-7 6 4 0
-5 -4 1 0
-4 -6 -2 0
1 7 -4 0
-3 6 5 0
7 1 -4 0
